4 
5  30 52 
6  17 37 56 
7  10 25 39 55 
8  10 25 40 55 
9  10 25 39 54 
10  09 24 39 54 
11  09 24 39 54 
12  09 24 39 54 
13  09 24 40 55 
14  10 25 40 55 
15  10 26 41 56 
16  11 26 41 56 
17  11 26 41 56 
18  11 26 41 56 
19  11 26 41 56 
20  11 26 41 57 
21  11 26 41 56 
22  11 26 43 57 
23  12 36 
0 
